(set-option :produce-models true)
(set-logic QF_UF)
(declare-fun p3() Bool)
(declare-fun p2() Bool)
(declare-fun p5() Bool)
(declare-fun p4() Bool)
(declare-fun p1() Bool)
(declare-fun p11() Bool)
(declare-fun p22() Bool)
(declare-fun p17() Bool)
(declare-fun p10() Bool)
(declare-fun p9() Bool)
(declare-fun p14() Bool)
(declare-fun p24() Bool)
(declare-fun p6() Bool)
(declare-fun p21() Bool)
(declare-fun p20() Bool)
(declare-fun p18() Bool)
(declare-fun p13() Bool)
(declare-fun p0() Bool)
(declare-fun p12() Bool)
(declare-fun p16() Bool)
(declare-fun p8() Bool)
(declare-fun p19() Bool)
(declare-fun p7() Bool)
(declare-fun p23() Bool)
(declare-fun p15() Bool)
(assert
(and (or p3 p2 (not p5)) (or (not p4) p1 p11) (or p22 (not p17) p10) (or (not p9) p14 (not p4)) (or p24 p6 (not p21)) (or p20 (not p3) p11) (or p18 (not p13) p0) (or p24 (not p24) p9) (or p21 (not p12) (not p22)) (or (not p4) (not p1) p14) (or p21 p1 (not p16)) (or p9 (not p3) p14) (or p8 (not p14) (not p19)) (or (not p10) p7 p10) (or (not p5) (not p17) (not p12)) (or (not p21) p22 (not p10)) (or p14 (not p1) (not p5)) (or (not p6) p5 (not p18)) (or p1 (not p1) (not p0)) (or (not p22) (not p24) (not p11)) (or (not p14) p8 p22) (or (not p19) p17 (not p11)) (or p9 p6 (not p10)) (or (not p16) (not p20) (not p22)) (or p22 p11 (not p20)) (or (not p3) (not p2) p14) (or (not p16) (not p18) p8) (or p5 (not p10) p17) (or (not p23) (not p13) (not p11)) (or (not p10) p19 (not p13)) (or (not p5) p10 p12) (or (not p3) (not p12) p0) (or (not p10) (not p8) (not p1)) (or p0 (not p20) (not p21)) (or (not p6) p11 (not p8)) (or p14 (not p0) (not p21)) (or p1 (not p10) (not p16)) (or (not p15) p0 (not p18)) (or (not p24) (not p22) p6) (or (not p2) (not p4) (not p14)) (or (not p17) (not p24) p21) (or (not p3) p6 p21) (or (not p12) p3 p8) (or p12 (not p24) (not p20)) (or (not p10) (not p17) (not p5)) (or (not p8) (not p3) p5) (or p18 p15 (not p5)) (or (not p23) p4 p12) (or p22 (not p9) p1) (or p2 (not p6) p24) (or p18 (not p5) p22) (or p5 (not p8) p2) (or (not p3) (not p9) p5) (or (not p22) (not p0) (not p6)) (or (not p3) p15 p20) (or p4 p17 (not p7)) (or p5 (not p10) p21) (or p6 p13 p18) (or (not p17) p10 (not p8)) (or (not p24) (not p4) (not p16)) (or (not p16) p21 (not p4)) (or (not p19) p20 p0) (or (not p5) p24 (not p11)) (or (not p6) (not p19) p6) (or p14 p12 p7) (or (not p19) p0 p2) (or p6 p21 (not p15)) (or p19 p1 p13) (or p2 (not p3) p24) (or p21 p23 (not p16)) (or (not p7) (not p14) (not p23)) (or (not p21) p4 (not p15)) (or (not p12) p5 (not p5)) (or (not p8) (not p7) p8) (or (not p5) (not p15) (not p17)) (or (not p13) (not p11) (not p5)) (or p3 p2 p14) (or (not p18) p1 p6) (or (not p22) (not p21) p11) (or (not p23) p2 p16) (or (not p21) (not p3) (not p12)) (or p22 p20 p10) (or p24 (not p9) (not p2)) (or p11 (not p11) p18) (or (not p13) (not p4) (not p14)) (or p15 p4 p0) (or p2 (not p15) p17) (or p18 p17 p7) (or p7 (not p17) (not p22)) (or p20 p3 (not p7)) (or p8 (not p0) p13) (or (not p24) (not p22) (not p13)) (or p15 p1 (not p8)) (or p17 (not p23) (not p12)) (or p1 (not p24) p18) (or p23 (not p7) p0) (or p6 (not p13) (not p18)) (or p1 p4 p3) (or p12 (not p22) (not p16)) (or (not p11) p7 p21) (or p9 p24 p4) (or (not p13) (not p0) (not p22)) (or (not p16) p19 (not p4)) (or (not p0) p23 p3) (or (not p2) (not p13) (not p13)) (or (not p20) p7 p23) (or (not p23) (not p2) (not p9)))
)
(check-sat)
(get-model)
